c array.sh: path:     /home/seidl/data/parity/parity50.qdimacs
c array.sh: name:     parity50
c array.sh: task:     1
c array.sh: host:     c3n01
c array.sh: uname:    Linux c3n01 4.15.0-135-generic #139-Ubuntu SMP Mon Jan 18 17:38:24 UTC 2021 x86_64 x86_64 x86_64 GNU/Linux
c array.sh: start:    Tue Feb 16 22:30:17 CET 2021
c array.sh: noturbo:  1
c array.sh: governor: 32 performance
c array.sh: tmp:      1%
c array.sh: unzipped: /tmp/local-unzipped-18834717-1-parity50.cnf
using tmp directory:
  /tmp
running QBF solver...

/home/seidl/cert_tests/bin/ferp-models/ijtihad/ijtihad --dependencies=0 --wit_per_call=-1 --cex_per_call=-1 --log_phi=/tmp/ferpcert3146expanded.cnf /tmp/local-unzipped-18834717-1-parity50.cnf
c Options after parsing: 
c cex_per_call = 18446744073709551615
c wit_per_call = 18446744073709551615
c warmup = 1
c warmup_randoms = 0
c trimming_phi = 0
c trimming_ksi = 2
c trimming_interval = 200
c memory_limit = 3000000
c MySolverv970-glucose
-1 
1 
c Number of calls is: 0
c Layers in PHI: 0
c Layers in KSI: 0
c Running Ijtihad loop
c sat_solver_phi calld 0 times, running for 0.003626 seconds.
c number of layers in PHI is 2
c sat_solver_ksi was running for 0 seconds.
c number of layers in KSI is 0
c mysolver was running for 0.004847 seconds.
s cnf 0
solving done with exit code 20

QBF solver OK

running SAT Solver...

/tmp/ferpcert3146expanded.cnf
s UNSATISFIABLE

PROOF GENERATION OK

checking unsat proof

resolved 1 root and 1 empty clause
trace-size2: 131989

TRACE CHECK OK

running toferp...

ferp-size: 135775
TOFERP OK

checking FERP PROOF...

FERP CHECK OK

extracting AIG ...

aig-size: 5073976
aig-header: aag 250829 99 0 1 250730
FERP CERT OK

merging  AIG into QBF ...

CERTCHECK OK

merged-cnf-header: p cnf 251521 753965
merged-cnf-size: 13995640
running SAT solver...

c ---- [ banner ] ------------------------------------------------------------
c
c KISSAT SAT Solver
c Copyright (c) 2019-2020 Armin Biere JKU Linz
c 
c Version 1.0.3 59813addcacc4d6fb880ebdd63685600475aa940
c gcc (Ubuntu 7.5.0-3ubuntu1~18.04) 7.5.0 -W -Wall -O3 -DNEMBEDDED -DNDEBUG -DNMETRICS -DNSTATISTICS
c Sun Feb 14 23:58:54 CET 2021 Linux cluster3 4.15.0-135-generic x86_64
c
c ---- [ parsing ] -----------------------------------------------------------
c
c opened and reading DIMACS file:
c 
c   /tmp/ferpcert_merged_cnf3146.cnf
c 
c parsed 'p cnf 251521 753965' header
c closing input after reading 13995640 bytes (13 MB)
c finished parsing after 0.20 seconds
c
c ---- [ solving ] -----------------------------------------------------------
c
c  seconds reductions redundant irredundant
c         MB   restarts    trail       variables
c          level  conflicts   glue           remaining
c
c *  0.20 38 0  0  0   0   0 0% 0 753963 251025 100%
c {  0.20 38 0  0  0   0   0 0% 0 753963 251025 100%
c i  0.25 42 85  0  0  81  75 50% 3 753963 251024 100%
c i  0.25 42 74  0  0  92  85 43% 3 753963 251022 100%
c i  0.25 42 71  0  0  96  88 41% 3 753963 251020 100%
c i  0.26 42 72  0  0 104  95 38% 3 753963 251019 100%
c i  0.26 43 96  0  0 116 103 36% 3 753963 251017 100%
c i  0.29 43 118  0  1 258 236 28% 3 753963 251015 100%
c -  0.32 43 108  1  1 304 258 27% 3 753144 251015 100%
c i  0.32 43 93  1  1 360 300 25% 3 753144 251014 100%
c i  0.33 43 91  1  1 368 305 24% 3 753144 251013 100%
c i  0.33 43 91  1  1 369 305 24% 3 753144 251012 100%
c i  0.33 43 91  1  1 371 306 24% 3 753144 251011 100%
c i  0.33 43 90  1  1 372 306 24% 3 753144 251003 100%
c i  0.33 43 89  1  1 379 312 23% 3 753144 251001 100%
c i  0.38 43 72  1  5 556 475 20% 3 753144 250994 100%
c i  0.39 43 73  1  5 558 475 20% 3 753144 250993 100%
c i  0.48 44 88  1 37 728 632 26% 3 753144 250982 100%
c i  0.51 44 85  1 41 787 687 26% 3 753144 250981 100%
c i  0.53 44 84  1 45 803 702 26% 3 753144 250979 100%
c
c  seconds  reductions redundant irredundant
c         MB    restarts     trail       variables
c          level   conflicts    glue           remaining
c
c i  0.54 44 83  1 51 812 710 26% 3 753144 250978 100%
c i  0.55 44 80  1 51 841 738 25% 3 753144 250977 100%
c i  0.56 44 80  1 51 854 750 25% 3 753144 250976 100%
c -  0.59 44 75  2 51 904 767 24% 3 753036 250976 100%
c i  0.61 44 70  2 51 953 809 23% 3 753036 250975 100%
c }  0.67 44 69  2 56 1001 852 24% 3 753036 250975 100%
c [  0.67 44 0  2 56 1001 852 0% 0 753036 250975 100%
c O  0.74 44 385  2 56 1002 853 84% 2 752807 250975 100%
c i  0.75 44 454  2 56 1015 863 87% 2 752807 250973 100%
c i  0.76 44 380  2 56 1062 907 89% 4 752807 250972 100%
c i  0.78 44 348  2 56 1073 917 89% 5 752807 250971 100%
c i  1.06 45 272  2 56 1262 1101 69% 5 752807 250970 100%
c i  1.11 45 306  2 56 1360 1193 66% 5 752807 250969 100%
c ]  1.17 45 327  2 56 1465 1292 64% 7 752807 250969 100%
c {  1.17 45 69  2 56 1465 1292 24% 3 752807 250969 100%
c i  1.28 45 73  2 60 1657 1467 28% 3 752807 250968 100%
c i  1.28 45 74  2 60 1669 1476 28% 3 752807 250963 100%
c i  1.29 45 80  2 60 1762 1559 32% 3 752807 250962 100%
c -  1.31 45 82  3 60 1804 1390 33% 3 752772 250962 100%
c i  1.32 45 80  3 60 1832 1415 32% 3 752772 250960 100%
c
c  seconds  reductions  redundant  irredundant
c         MB    restarts       trail       variables
c          level   conflicts      glue           remaining
c
c i  1.34 45 77  3 60 1911 1485 31% 3 752772 250959 100%
c i  1.35 45 76  3 60 1926 1499 30% 3 752772 250958 100%
c i  1.38 45 76  3 60 1986 1554 30% 3 752772 250957 100%
c i  1.45 45 74  3 93 2140 1697 30% 3 752772 250956 100%
c i  1.50 45 72  3 93 2200 1752 30% 3 752772 250952 100%
c i  1.53 45 68  3 95 2288 1836 28% 3 752772 250951 100%
c i  1.74 45 65  3 118 2470 2002 29% 3 752772 250950 100%
c i  1.74 45 64  3 119 2471 2002 29% 3 752772 250945 100%
c i  1.77 45 64  3 125 2487 2016 29% 3 752772 250943 100%
c d  1.83 46 63  3 127 2501 1970 29% 3 752611 250870 100%
c d  1.88 48 63  3 127 2501 1969 29% 3 752466 250805 100%
c 3  2.00 46 63  3 127 2501 5907 29% 3 752466 250805 100%
c t  2.05 46 63  3 127 2501 5903 29% 3 751266 250583 100%
c f  2.42 51 63  3 127 2501 142371 29% 3 751218 249937 99%
c f  2.44 51 63  3 127 2501 142371 29% 3 751047 249937 99%
c u  2.61 51 63  3 127 2501 142248 29% 3 751047 249937 99%
c v  2.67 51 63  3 127 2501 142109 29% 3 751047 249937 99%
c w  3.11 52 63  3 127 2501 142213 29% 3 751020 249867 99%
c d  3.19 53 63  3 127 2501 137693 29% 3 742354 245458 98%
c d  3.25 53 63  3 127 2501 137682 29% 3 742261 245412 98%
c
c  seconds  reductions    redundant   irredundant
c         MB    restarts          trail       variables
c          level    conflicts        glue           remaining
c
c i  3.26 53 63  3 127 2501 137682 29% 3 742261 245412 98%
c i  3.35 53 62  3 142 2556 137736 28% 3 742261 245408 98%
c i  3.52 53 61  3 174 2638 137817 28% 3 742261 245406 98%
c i  3.86 53 59  3 234 2800 137973 28% 3 742261 245399 98%
c i  3.94 53 59  3 234 2988 138148 31% 3 742261 245398 98%
c i  3.94 53 59  3 234 2995 138154 31% 3 742261 245397 98%
c I  3.95 53 59  3 234 3004 138162 31% 3 742261 245397 98%
c -  3.97 53 59  4 234 3004 2266 31% 3 739518 245397 98%
c i  4.00 53 56  4 238 3176 2428 29% 3 739518 245396 98%
c i  4.03 53 55  4 246 3223 2471 28% 3 739518 245395 98%
c i  4.05 53 55  4 246 3245 2487 29% 3 739518 245394 98%
c i  4.07 53 55  4 246 3264 2505 29% 3 739518 245393 98%
c i  4.11 53 53  4 246 3394 2622 28% 3 739518 245390 98%
c i  4.12 53 52  4 246 3429 2655 28% 3 739518 245388 98%
c }  4.15 53 52  4 246 3465 2691 28% 3 739518 245388 98%
c [  4.15 53 327  4 246 3465 2691 64% 7 739518 245388 98%
c ]  5.21 53 150  4 246 4001 3208 82% 11 739518 245388 98%
c {  5.21 53 52  4 246 4001 3208 28% 3 739518 245388 98%
c i  5.26 53 52  4 253 4030 3236 28% 3 739518 245387 98%
c i  5.27 53 52  4 262 4052 3253 28% 3 739518 245386 98%
c
c  seconds  reductions   redundant  irredundant
c         MB    restarts        trail       variables
c          level    conflicts      glue           remaining
c
c i  5.31 53 52  4 267 4062 3262 28% 3 739518 245385 98%
c i  5.31 53 52  4 267 4064 3262 28% 3 739518 245384 98%
c i  5.31 53 52  4 269 4068 3265 28% 3 739518 245382 98%
c i  5.34 53 52  4 275 4080 3276 28% 3 739518 245381 98%
c i  5.34 53 52  4 276 4081 3276 28% 3 739518 245380 98%
c i  5.36 53 52  4 278 4085 3279 28% 3 739518 245378 98%
c i  5.40 53 52  4 288 4107 3300 28% 3 739518 245377 98%
c i  5.42 53 51  4 299 4134 3325 27% 3 739518 245376 98%
c i  5.66 53 51  4 340 4237 3423 27% 3 739518 245374 98%
c i  5.68 53 51  4 349 4258 3443 27% 3 739518 245373 98%
c i  5.76 53 50  4 359 4368 3548 27% 3 739518 245371 98%
c i  5.76 53 50  4 359 4372 3551 27% 3 739518 245370 98%
c -  5.85 53 50  5 363 4504 2899 29% 3 739432 245370 98%
c i  5.94 53 50  5 374 4556 2946 29% 3 739432 245369 98%
c i  6.06 53 49  5 396 4651 3037 28% 3 739432 245368 98%
c i  6.13 53 49  5 404 4729 3107 28% 3 739432 245366 98%
c i  6.13 53 49  5 404 4730 3107 28% 3 739432 245364 98%
c i  6.14 53 48  5 407 4743 3119 28% 3 739432 245363 98%
c i  6.32 53 49  5 416 4816 3183 28% 3 739432 245362 98%
c i  6.33 53 49  5 416 4852 3213 28% 3 739432 245361 98%
c
c  seconds  reductions   redundant  irredundant
c         MB    restarts        trail       variables
c          level    conflicts      glue           remaining
c
c i  6.34 53 48  5 416 4869 3229 28% 3 739432 245360 98%
c i  6.34 53 48  5 416 4904 3254 27% 3 739432 245359 98%
c i  6.38 53 48  5 416 4970 3313 29% 3 739432 245358 98%
c i  6.39 53 48  5 416 4979 3321 29% 3 739432 245350 98%
c i  6.39 53 48  5 416 4988 3328 29% 3 739432 245349 98%
c i  6.42 53 47  5 416 5097 3422 28% 3 739432 245343 98%
c i  6.48 53 49  5 420 5227 3542 28% 3 739432 245342 98%
c i  6.53 53 49  5 420 5332 3638 28% 3 739432 245341 98%
c i  7.11 53 46  5 525 5930 4199 27% 3 739432 245340 98%
c i  7.18 53 47  5 531 5995 4259 27% 3 739432 245338 98%
c i  7.20 53 47  5 533 6002 4265 27% 3 739432 245336 98%
c a  7.27 53 47  5 534 6004 4262 27% 3 739263 245324 98%
c B  7.29 53 47  5 534 6005 4263 27% 3 739263 245324 98%
c i  7.43 53 47  5 558 6141 4388 27% 3 739263 245323 98%
c -  7.50 53 51  6 558 6306 4125 29% 3 739259 245323 98%
c i  7.58 53 53  6 562 6386 4201 30% 3 739259 245322 98%
c i  7.60 53 53  6 564 6392 4206 30% 3 739259 245321 98%
c i  7.70 53 53  6 583 6443 4256 30% 3 739259 245320 98%
c i  7.80 53 52  6 592 6649 4451 29% 3 739259 245318 98%
c i  7.81 53 51  6 592 6713 4513 29% 3 739259 245317 98%
c
c  seconds  reductions   redundant  irredundant
c         MB    restarts        trail       variables
c          level    conflicts      glue           remaining
c
c i  7.98 53 51  6 633 6884 4682 29% 3 739259 245316 98%
c i  8.09 53 51  6 662 6958 4752 29% 3 739259 245315 98%
c i  8.35 53 47  6 689 7413 5185 28% 3 739259 245314 98%
c i  8.40 53 47  6 689 7496 5265 27% 3 739259 245312 98%
c d  8.47 54 47  6 689 7501 5197 27% 3 739071 245220 97%
c d  8.52 54 47  6 689 7501 5196 27% 3 738787 245096 97%
c 3  8.64 55 47  6 689 7501 9839 27% 3 738787 245096 97%
c t  8.67 55 47  6 689 7501 9834 27% 3 738022 244960 97%
c f  9.01 57 47  6 689 7501 140444 27% 3 737978 244369 97%
c u  9.17 57 47  6 689 7501 140410 27% 3 737978 244368 97%
c v  9.23 57 47  6 689 7501 140392 27% 3 737978 244368 97%
c w  9.70 57 47  6 689 7501 147593 27% 3 737787 244338 97%
c d  9.77 55 47  6 689 7501 144602 27% 3 732153 241424 96%
c d  9.83 55 47  6 689 7501 144585 27% 3 732083 241390 96%
c i  9.84 55 47  6 689 7501 144585 27% 3 732083 241390 96%
c i 10.08 55 46  6 734 7679 144760 27% 3 732083 241387 96%
c i 10.47 55 45  6 787 7897 144975 27% 3 732083 241386 96%
c i 10.64 55 45  6 810 8019 145089 27% 3 732083 241385 96%
c i 10.67 55 45  6 814 8033 145100 27% 3 732083 241384 96%
c i 10.92 55 45  6 847 8141 145207 27% 3 732083 241383 96%
c
c  seconds  reductions    redundant   irredundant
c         MB    restarts          trail       variables
c          level    conflicts        glue           remaining
c
c i 10.92 55 45  6 847 8142 145207 27% 3 732083 241382 96%
c i 10.95 55 45  6 863 8188 145248 27% 3 732083 241381 96%
c i 11.02 55 45  6 883 8240 145298 27% 3 732083 241380 96%
c - 11.45 55 44  7 943 8406 51690 26% 3 729903 241380 96%
c i 11.51 55 44  7 960 8462 51745 26% 3 729903 241378 96%
c i 11.66 55 44  7 1003 8646 51913 26% 4 729903 241377 96%
c i 11.70 55 44  7 1006 8659 51925 26% 4 729903 241375 96%
c i 11.74 55 44  7 1010 8674 51939 26% 4 729903 241373 96%
c } 11.95 55 43  7 1030 9002 52248 26% 4 729903 241373 96%
c [ 11.95 55 150  7 1030 9002 52248 82% 11 729903 241373 96%
c a 13.11 56 174  7 1030 10005 52619 73% 8 729721 241320 96%
c W 13.38 56 174  7 1030 10006 52620 73% 8 729721 241320 96%
c - 14.90 56 142  8 1031 10807 30787 78% 12 729721 241320 96%
c ] 16.54 57 123  8 1032 11806 31743 81% 14 729721 241320 96%
c { 16.54 57 43  8 1032 11806 31743 26% 4 729721 241320 96%
c i 16.59 57 44  8 1042 11842 31777 26% 4 729721 241319 96%
c i 16.92 57 44  8 1105 12059 31985 25% 4 729721 241314 96%
c i 16.95 57 44  8 1106 12098 32020 25% 4 729721 241313 96%
c 2 17.12 57 44  8 1106 12500 32403 27% 4 727335 240865 96%
c s 17.20 57 44  8 1106 12500 32403 27% 4 725573 240811 96%
c
c  seconds  reductions      redundant  irredundant
c         MB     restarts          trail       variables
c          level      conflicts       glue          remaining
c
c e 19.09 53 44  8 1106 12500 32403 27% 4 204041 30435 12%
c s 19.19 53 44  8 1106 12500 32403 27% 4 203661 30435 12%
c e 19.24 53 44  8 1106 12500 32403 27% 4 202284 30086 12%
c - 19.43 39 42  9 1142 13507 1903 25% 4 201951 30086 12%
c d 19.70 39 41  9 1241 15002 3221 27% 4 201799 30031 12%
c 3 19.82 38 41  9 1241 15002 26455 27% 4 201793 30031 12%
c t 19.84 38 41  9 1241 15002 26246 27% 4 199275 29998 12%
c f 19.88 40 41  9 1241 15002 47151 27% 4 199233 29937 12%
c u 19.94 40 41  9 1241 15002 46931 27% 4 199092 29937 12%
c v 19.96 40 41  9 1241 15002 46786 27% 4 199092 29937 12%
c w 20.09 42 41  9 1241 15002 47461 27% 4 198998 29937 12%
c d 20.10 42 41  9 1241 15002 47128 27% 4 198597 29758 12%
c i 20.12 42 41  9 1241 15002 47128 27% 4 198597 29758 12%
c O 20.12 42 41  9 1241 15007 47133 27% 4 198597 29758 12%
c - 20.38 42 40 10 1346 16507 4549 27% 4 198307 29758 12%
c i 20.74 42 37 10 1506 18325 6224 25% 4 198307 29757 12%
c - 21.08 42 35 11 1691 19807 6835 24% 4 198301 29757 12%
c B 21.30 42 33 11 1770 21008 7931 23% 4 198301 29757 12%
c } 21.54 43 33 11 1920 21807 8685 23% 4 198301 29757 12%
c [ 21.54 43 123 11 1920 21807 8685 81% 14 198301 29757 12%
c
c  seconds  reductions     redundant   irredundant
c         MB     restarts         trail        variables
c          level      conflicts       glue          remaining
c
c - 21.80 43 83 12 1921 23410 8969 55% 11 198301 29757 12%
c i 21.97 43 72 12 1922 24393 9681 47% 9 198301 29756 12%
c d 22.04 43 82 12 1922 25002 10130 49% 9 198121 29695 12%
c d 22.05 43 82 12 1922 25002 10124 49% 9 198080 29683 12%
c 3 22.16 38 82 12 1922 25002 34627 49% 9 198065 29683 12%
c t 22.19 38 82 12 1922 25002 34583 49% 9 197812 29678 12%
c f 22.22 39 82 12 1922 25002 54510 49% 9 197778 29658 12%
c u 22.29 40 82 12 1922 25002 54618 49% 9 197778 29658 12%
c v 22.32 40 82 12 1922 25002 54510 49% 9 197778 29658 12%
c w 22.46 42 82 12 1922 25002 55529 49% 9 196631 29658 12%
c d 22.48 42 82 12 1922 25002 55064 49% 9 196210 29464 12%
c i 22.50 42 82 12 1922 25002 55064 49% 9 196210 29464 12%
c - 22.99 43 89 13 1924 27311 15914 50% 11 196142 29464 12%
c W 23.26 43 88 13 1924 28009 16577 51% 11 196142 29464 12%
c ] 24.36 43 86 13 1926 31438 19746 56% 10 196142 29464 12%
c { 24.36 43 33 13 1926 31438 19746 23% 4 196142 29464 12%
c - 24.40 43 33 14 1942 31511 11486 23% 4 196141 29464 12%
c i 24.63 43 34 14 2007 32313 12197 24% 4 196141 29463 12%
c i 25.46 43 33 14 2438 35321 14952 24% 4 196137 29462 12%
c - 25.63 43 33 15 2513 36015 13541 25% 4 196133 29462 12%
c
c  seconds  reductions      redundant  irredundant
c         MB     restarts          trail       variables
c          level      conflicts       glue          remaining
c
c I 25.65 43 33 15 2513 36016 13542 25% 4 196123 29462 12%
c 2 25.95 43 33 15 2587 37501 14903 25% 4 196095 29461 12%
c s 25.96 43 33 15 2587 37501 14903 25% 4 195582 29461 12%
c e 26.05 36 33 15 2587 37501 14903 25% 4 191708 28502 11%
c 2 26.05 36 33 15 2587 37501 14903 25% 4 191680 28502 11%
c s 26.07 36 33 15 2587 37501 14903 25% 4 191395 28502 11%
c e 26.09 36 33 15 2587 37501 14903 25% 4 191216 28460 11%
c d 26.11 38 33 15 2588 37502 12923 25% 4 191047 28396 11%
c d 26.12 38 33 15 2588 37502 12918 25% 4 191028 28392 11%
c 3 26.25 38 33 15 2588 37502 36393 25% 4 191009 28392 11%
c t 26.27 38 33 15 2588 37502 36228 25% 4 190674 28389 11%
c f 26.31 39 33 15 2588 37502 57035 25% 4 190664 28382 11%
c u 26.41 40 33 15 2588 37502 56847 25% 4 190664 28382 11%
c v 26.44 40 33 15 2588 37502 56653 25% 4 190664 28382 11%
c w 26.59 42 33 15 2588 37502 56685 25% 4 189494 28378 11%
c d 26.61 42 33 15 2588 37502 56366 25% 4 189205 28268 11%
c i 26.62 42 33 15 2588 37502 56366 25% 4 189205 28268 11%
c - 27.52 43 33 16 3044 40815 16895 26% 4 189173 28268 11%
c B 28.86 43 32 16 3727 45018 20751 26% 4 189171 28268 11%
c i 29.11 43 32 16 3875 45680 21366 26% 4 189171 28267 11%
c
c  seconds  reductions      redundant  irredundant
c         MB     restarts          trail       variables
c          level      conflicts       glue          remaining
c
c - 29.18 43 32 17 3913 45916 17466 26% 4 189165 28267 11%
c } 30.09 43 33 17 4314 48439 19793 27% 4 189165 28267 11%
c [ 30.09 43 86 17 4314 48439 19793 56% 10 189165 28267 11%
c - 30.93 43 91 18 4316 51317 19647 62% 9 189165 28267 11%
c d 31.32 43 93 18 4316 52502 20499 63% 10 188989 28196 11%
c d 31.33 43 93 18 4316 52502 20498 63% 10 188959 28187 11%
c 3 31.50 39 93 18 4316 52502 46900 63% 10 188938 28187 11%
c t 31.52 39 93 18 4316 52502 46844 63% 10 188599 28186 11%
c f 31.57 40 93 18 4316 52502 65817 63% 10 188598 28169 11%
c u 31.66 41 93 18 4316 52502 65657 63% 10 188598 28169 11%
c v 31.70 41 93 18 4316 52502 65581 63% 10 188598 28169 11%
c w 31.86 43 93 18 4316 52502 65819 63% 10 187704 28167 11%
c d 31.88 43 93 18 4316 52502 65295 63% 10 187325 28002 11%
c d 31.89 43 93 18 4316 52502 65271 63% 10 187311 27996 11%
c i 31.90 43 93 18 4316 52502 65271 63% 10 187311 27996 11%
c W 32.66 43 91 18 4319 55021 67510 64% 10 187263 27996 11%
c - 33.47 43 86 19 4320 57017 23922 63% 10 187263 27996 11%
c - 35.92 43 71 20 4323 63017 22591 57% 9 187263 27996 11%
c ] 36.04 43 71 20 4323 63563 23088 58% 9 187263 27996 11%
c { 36.04 43 33 20 4323 63563 23088 27% 4 187263 27996 11%
c
c  seconds  reductions      redundant  irredundant
c         MB     restarts          trail       variables
c          level      conflicts       glue          remaining
c
c # 37.13 44 33 20 4901 66022 25300 28% 4 187262 27996 11%
c i 38.22 44 32 20 5385 68580 27549 28% 4 187262 27995 11%
c - 38.59 44 32 21 5578 69317 25168 28% 4 187245 27995 11%
c d 38.95 44 32 21 5771 70002 25596 28% 4 187131 27955 11%
c d 38.96 44 32 21 5771 70002 25596 28% 4 187125 27953 11%
c 3 39.14 39 32 21 5771 70002 53302 28% 4 187115 27953 11%
c t 39.17 39 32 21 5771 70002 52941 28% 4 186808 27952 11%
c f 39.22 40 32 21 5771 70002 75449 28% 4 186807 27921 11%
c u 39.42 41 32 21 5771 70002 75489 28% 4 186807 27921 11%
c v 39.47 41 32 21 5771 70002 75361 28% 4 186807 27921 11%
c w 39.62 43 32 21 5771 70002 75939 28% 4 185591 27921 11%
c d 39.64 43 32 21 5771 70002 75536 28% 4 185259 27777 11%
c d 39.66 43 32 21 5771 70002 75535 28% 4 185250 27775 11%
c i 39.66 43 32 21 5771 70002 75535 28% 4 185250 27775 11%
c i 41.68 44 32 21 6811 74227 79325 28% 4 185250 27774 11%
c 2 42.05 44 31 21 7011 75001 79154 28% 4 185122 27773 11%
c s 42.06 44 31 21 7011 75001 79154 28% 4 184177 27773 11%
c e 42.15 36 31 21 7011 75001 79154 28% 4 180296 26736 11%
c 2 42.15 36 31 21 7011 75001 79154 28% 4 180286 26735 11%
c s 42.17 36 31 21 7011 75001 79154 28% 4 180073 26735 11%
c
c  seconds  reductions      redundant  irredundant
c         MB     restarts          trail       variables
c          level      conflicts       glue          remaining
c
c e 42.19 36 31 21 7011 75001 79154 28% 4 179903 26696 11%
c - 42.70 41 31 22 7240 75917 27218 28% 4 179901 26696 11%
c B 43.60 41 31 22 7627 78023 29140 28% 5 179901 26696 11%
c i 44.78 41 31 22 8105 80255 31109 28% 5 179901 26695 11%
c - 46.29 41 31 23 8699 82817 28240 29% 5 179898 26695 11%
c } 49.90 42 31 23 10346 89563 34422 29% 5 179898 26695 11%
c [ 49.90 42 71 23 10346 89563 34422 58% 9 179898 26695 11%
c d 50.13 42 71 23 10346 90003 34676 58% 9 179791 26645 11%
c d 50.14 42 71 23 10346 90003 34672 58% 9 179774 26640 11%
c 3 50.38 39 71 23 10346 90003 65275 58% 9 179756 26640 11%
c t 50.41 39 71 23 10346 90003 65163 58% 9 179388 26638 11%
c f 50.50 41 71 23 10346 90003 97598 58% 9 179337 26594 11%
c f 50.51 41 71 23 10346 90003 97551 58% 9 179167 26594 11%
c u 50.82 41 71 23 10346 90003 97118 58% 9 179167 26594 11%
c v 50.89 42 71 23 10346 90003 96893 58% 9 179167 26594 11%
c w 51.09 44 71 23 10346 90003 97544 58% 9 178071 26594 11%
c d 51.12 44 71 23 10346 90003 97200 58% 9 177659 26433 11%
c i 51.15 44 71 23 10346 90003 97200 58% 9 177659 26433 11%
c - 51.18 44 71 24 10346 90017 41912 58% 9 177554 26433 11%
c W 51.60 44 70 24 10347 91024 42852 58% 9 177554 26433 11%
c
c  seconds  reductions       redundant   irredundant
c         MB     restarts           trail        variables
c          level       conflicts        glue          remaining
c
c - 53.67 44 66 25 10351 97517 37041 56% 11 177553 26433 11%
c F 55.70 39 61 25 10355 105025 43706 56% 11 177553 26433 11%
c - 55.84 39 60 26 10355 105319 31591 56% 11 177553 26433 11%
c d 58.92 40 52 26 10359 112505 37280 52% 10 177534 26423 11%
c 3 59.14 39 52 26 10359 112505 67933 52% 10 177520 26423 11%
c t 59.17 39 52 26 10359 112505 67503 52% 10 177158 26422 11%
c f 59.24 41 52 26 10359 112505 101542 52% 10 177119 26410 11%
c u 59.46 42 52 26 10359 112505 100814 52% 10 177119 26410 11%
c v 59.54 42 52 26 10359 112505 100688 52% 10 177119 26410 11%
c w 59.72 44 52 26 10359 112505 101216 52% 10 175876 26410 11%
c d 59.75 44 52 26 10359 112505 100891 52% 10 175645 26306 10%
c i 59.77 44 52 26 10359 112505 100891 52% 10 175645 26306 10%
c - 60.09 44 51 27 10359 113422 41586 52% 10 175613 26306 10%
c B 62.32 44 47 27 10360 120027 47626 50% 10 175613 26306 10%
c i 62.99 44 45 27 10360 121662 48898 49% 10 175613 26281 10%
c - 63.08 44 45 28 10360 121824 35213 49% 10 175525 26281 10%
c 2 64.51 38 44 28 10363 125002 37982 49% 10 175490 26281 10%
c s 64.52 38 44 28 10363 125002 37982 49% 10 174047 26281 10%
c e 64.61 39 44 28 10363 125002 37982 49% 10 168763 25057 10%
c 2 64.61 39 44 28 10363 125002 37982 49% 10 168753 25057 10%
c
c  seconds  reductions        redundant   irredundant
c         MB     restarts            trail        variables
c          level       conflicts         glue          remaining
c
c s 64.63 39 44 28 10363 125002 37982 49% 10 168466 25057 10%
c e 64.66 39 44 28 10363 125002 37982 49% 10 167673 24918 10%
c ] 66.39 40 42 28 10366 130121 38433 48% 10 167672 24918 10%
c { 66.39 40 31 28 10366 130121 38433 29% 5 167672 24918 10%
c - 66.59 40 31 29 10451 130524 31156 29% 5 167672 24918 10%
c i 67.68 40 30 29 10896 132712 32987 29% 5 167672 24735 10%
c i 67.81 40 30 29 10896 132959 33140 29% 5 167672 24733 10%
c i 67.84 40 30 29 10896 133014 33162 29% 5 167672 24314 10%
c i 67.84 40 30 29 10896 133022 33167 29% 5 167672 24134 10%
c i 67.85 40 30 29 10896 133033 33171 29% 5 167672 23893 9%
c i 67.85 40 30 29 10896 133039 33173 29% 5 167672 23889 9%
c i 67.85 40 30 29 10896 133041 33174 29% 5 167672 23639 9%
c i 67.85 40 30 29 10896 133043 33175 29% 5 167672 23624 9%
c } 67.85 40 30 29 10896 133045 33175 29% 5 167672 20906 8%
c 0 67.85 40 30 29 10896 133045 33175 29% 5 167672 20906 8%
c
c ---- [ result ] ------------------------------------------------------------
c
s UNSATISFIABLE
c
c ---- [ profiling ] ---------------------------------------------------------
c
c          56.60   83.42 %  search
c          29.06   42.83 %  focused
c          27.54   40.58 %  stable
c          11.05   16.29 %  simplify
c           7.58   11.17 %  probe
c           3.84    5.66 %  vivify
c           2.62    3.86 %  eliminate
c           1.33    1.95 %  ternary
c           1.09    1.61 %  failed
c           1.04    1.53 %  substitute
c           0.48    0.71 %  walking
c           0.40    0.59 %  reduce
c           0.38    0.55 %  autarky
c           0.28    0.42 %  transitive
c           0.20    0.29 %  parse
c =============================================
c          67.85  100.00 %  total
c
c ---- [ statistics ] --------------------------------------------------------
c
c conflicts:                           133045             1960.82 per second
c decisions:                           608951                4.58 per conflict
c propagations:                     456562196          6728832    per second
c reductions:                              29             4588    interval
c rephased:                                15             8870    interval
c restarts:                             10896               12.21 interval
c
c ---- [ resources ] ---------------------------------------------------------
c
c maximum-resident-set-size:         80093184 bytes         76 MB
c process-time:                          1m 7s              67.85 seconds
c
c ---- [ shutting down ] -----------------------------------------------------
c
c exit 20

SAT solver OK

VALID
c array.sh: end:      Tue Feb 16 22:31:25 CET 2021
